NAME : sample_15
COMMENT : Sample TSP instance with 15 cities
TYPE : TSP
DIMENSION : 15
EDGE_WEIGHT_TYPE : EUC_2D
NODE_COORD_SECTION
1 618 869
2 32 201
3 186 564
4 427 631
5 886 364
6 67 680
7 885 789
8 982 51
9 615 10
10 93 286
11 971 848
12 832 659
13 561 180
14 445 955
15 844 613
EOF
